min: +1 x5_1 +2 x5_2 +3 x5_3 +4 x5_4 +5 x5_5 -1;
+ x1_1 + x1_2 + x1_3 + x1_4 + x1_5 = 1;
+ x2_1 + x2_2 + x2_3 + x2_4 + x2_5 = 1;
+ x3_1 + x3_2 + x3_3 + x3_4 + x3_5 = 1;
+ x4_1 + x4_2 + x4_3 + x4_4 + x4_5 = 1;
+ x5_1 + x5_2 + x5_3 + x5_4 + x5_5 = 1;
+ x3_1 - x1_1 +2 x3_2 -2 x1_2 +3 x3_3 -3 x1_3 +4 x3_4 -4 x1_4 +5 x3_5 -5 x1_5 >= 1;
+ x3_1 - x2_1 +2 x3_2 -2 x2_2 +3 x3_3 -3 x2_3 +4 x3_4 -4 x2_4 +5 x3_5 -5 x2_5 >= 1;
+ x4_1 - x1_1 +2 x4_2 -2 x1_2 +3 x4_3 -3 x1_3 +4 x4_4 -4 x1_4 +5 x4_5 -5 x1_5 >= 1;
+ x4_1 - x3_1 +2 x4_2 -2 x3_2 +3 x4_3 -3 x3_3 +4 x4_4 -4 x3_4 +5 x4_5 -5 x3_5 >= 1;
+ x5_1 - x4_1 +2 x5_2 -2 x4_2 +3 x5_3 -3 x4_3 +4 x5_4 -4 x4_4 +5 x5_5 -5 x4_5 >= 1;
+ x1_1 + x2_1 + x3_1 + x4_1 <= 2;
+ x1_2 + x2_2 + x3_2 + x4_2 <= 2;
+ x1_3 + x2_3 + x3_3 + x4_3 <= 2;
+ x1_4 + x2_4 + x3_4 + x4_4 <= 2;
+ x1_5 + x2_5 + x3_5 + x4_5 <= 2;
binary x1_1, x1_2, x1_3, x1_4, x1_5, x2_1, x2_2, x2_3, x2_4, x2_5, x3_1, x3_2, x3_3, x3_4, x3_5, x4_1, x4_2, x4_3, x4_4, x4_5, x5_1, x5_2, x5_3, x5_4, x5_5;
